<number of tasks>
50

<cycle time>
1000

<order strength>
0.595


<task times>
1 574
2 492
3 377
4 713
5 653
6 331
7 519
8 615
9 466
10 484
11 606
12 577
13 790
14 555
15 747
16 521
17 712
18 356
19 527
20 803
21 323
22 459
23 480
24 297
25 523
26 479
27 616
28 607
29 397
30 668
31 494
32 453
33 467
34 491
35 490
36 649
37 497
38 509
39 562
40 529
41 535
42 488
43 434
44 755
45 597
46 449
47 371
48 526
49 487
50 647

<precedence relations>
1,8
2,9
3,10
3,11
3,19
3,20
4,12
4,13
5,13
6,23
6,29
6,30
6,31
7,13
8,14
9,18
10,15
11,16
12,17
13,18
13,19
13,20
14,22
15,21
16,22
17,23
18,22
18,23
18,24
18,25
19,22
20,22
20,23
20,24
20,25
21,26
22,27
23,35
24,31
25,29
26,28
27,29
27,30
27,31
28,33
29,32
29,34
29,35
30,35
31,34
31,35
32,36
33,37
34,37
34,38
35,37
35,38
36,39
37,41
37,42
38,40
38,41
38,42
39,44
40,45
41,43
41,46
41,47
42,46
42,47
43,48
44,49
45,50
46,50
47,49

<end>
